
Gurobi 9.1.2 (win64) logging started Mon Dec  6 21:59:15 2021

Gurobi Optimizer version 9.1.2 build v9.1.2rc0 (win64)
Thread count: 8 physical cores, 8 logical processors, using up to 8 threads
Optimize a model with 1 rows, 241 columns and 240 nonzeros
Model fingerprint: 0x1982a1f1
Variable types: 1 continuous, 240 integer (240 binary)
Coefficient statistics:
  Matrix range     [1e+00, 1e+01]
  Objective range  [1e+00, 1e+00]
  Bounds range     [1e+02, 1e+02]
  RHS range        [1e+01, 1e+01]
Presolve time: 0.00s
Presolved: 1 rows, 241 columns, 240 nonzeros
Variable types: 1 continuous, 240 integer (240 binary)

Root simplex log...

Iteration    Objective       Primal Inf.    Dual Inf.      Time
       0   -1.0550809e+02   1.336585e-01   0.000000e+00     15s
       3   -1.0550809e+02   0.000000e+00   0.000000e+00     15s

Root relaxation: objective -1.055081e+02, 3 iterations, 0.00 seconds

    Nodes    |    Current Node    |     Objective Bounds      |     Work
 Expl Unexpl |  Obj  Depth IntInf | Incumbent    BestBd   Gap | It/Node Time

     0     0 -102.81369    0    2          - -102.81369      -     -   15s
H    0     0                       0.8825970 -102.81369      -     -   17s
H    0     0                       0.8010267 -102.81369      -     -   19s
H    0     0                       0.8007869 -102.81369      -     -   21s
     0     0  -53.77316    0    8    0.80079  -53.77316  6815%     -   21s
     0     0  -47.78010    0   10    0.80079  -47.78010  6067%     -   23s
H    0     0                       0.7580156  -47.78010  6403%     -   24s
     0     0  -45.04824    0   12    0.75802  -45.04824  6043%     -   24s
     0     0  -44.98474    0   12    0.75802  -44.98474  6035%     -   24s
     0     0  -43.61762    0   11    0.75802  -43.61762  5854%     -   24s
     0     0  -43.61762    0   11    0.75802  -43.61762  5854%     -   25s
     0     0  -43.39285    0   14    0.75802  -43.39285  5825%     -   25s
     0     0  -43.35303    0   13    0.75802  -43.35303  5819%     -   25s
     0     0  -42.80013    0   13    0.75802  -42.80013  5746%     -   25s
     0     2  -42.80013    0   13    0.75802  -42.80013  5746%     -   25s
   550   263     cutoff   22         0.75802  -19.24623  2639%   4.2   32s
  1150   478     cutoff   21         0.75802  -12.01237  1685%   4.0   38s
  1662   588   -0.03463   13    2    0.75802  -10.93406  1542%   4.1   42s
  1998   738     cutoff   24         0.75802   -7.53863  1095%   4.2   45s
  3597   817   -1.50118   31    8    0.75802   -4.70726   721%   4.5   51s
  5644   191    0.27644   37    3    0.75802   -1.04307   238%   5.0   55s

Cutting planes:
  Cover: 3
  MIR: 9
  Lazy constraints: 208

Explored 6553 nodes (33325 simplex iterations) in 57.89 seconds
Thread count was 8 (of 8 available processors)

Solution count 4: 0.758016 0.800787 0.801027 0.882597 

Optimal solution found (tolerance 1.00e-04)
Best objective 7.580155685919e-01, best bound 7.580155685919e-01, gap 0.0000%

User-callback calls 13507, time in user-callback 60.95 sec
